# 86139
param n := 25;
param s := 1;
set E :=  (0,9) (0,10) (1,10) (1,14) (1,20) (1,23) (2,10) (2,12) (3,8) (3,14) (3,20) (4,16) (4,24) (5,7) (5,10) (5,20) (6,15) (6,16) (6,17) (6,21) (7,9) (7,14) (8,19) (9,10) (9,12) (10,24) (11,12) (11,16) (12,23) (12,24) (13,20) (13,24) (17,24) (18,21) (19,20) (19,21) (20,24) (22,24);
